NAME          DCAP_2_4_3_500_SS389
ROWS
 N  OBJ
 L  CON1
 L  CON2
 L  CON3
 L  CON4
 L  CON5
 L  CON6
 L  CON7
 L  CON8
 L  CON9
 L  CON10
 L  CON11
 L  CON12
 E  CON13
 E  CON14
 E  CON15
 E  CON16
 E  CON17
 E  CON18
 E  CON19
 E  CON20
 E  CON21
 E  CON22
 E  CON23
 E  CON24
COLUMNS
    x[1,1]    OBJ       6.180167      CON1      1.000000    
    x[1,1]    CON7      -1.000000     CON8      -1.000000   
    x[1,1]    CON9      -1.000000   
    x[1,2]    OBJ       6.563535      CON2      1.000000    
    x[1,2]    CON8      -1.000000     CON9      -1.000000   
    x[1,3]    OBJ       7.443064      CON3      1.000000    
    x[1,3]    CON9      -1.000000   
    x[2,1]    OBJ       6.732585      CON4      1.000000    
    x[2,1]    CON10     -1.000000     CON11     -1.000000   
    x[2,1]    CON12     -1.000000   
    x[2,2]    OBJ       5.039546      CON5      1.000000    
    x[2,2]    CON11     -1.000000     CON12     -1.000000   
    x[2,3]    OBJ       6.054841      CON6      1.000000    
    x[2,3]    CON12     -1.000000   
    MARKER    'MARKER'                'INTORG'
    u[1,1]    OBJ       48.076654     CON1      -1.000000   
    u[1,2]    OBJ       20.066487     CON2      -1.000000   
    u[1,3]    OBJ       32.230043     CON3      -1.000000   
    u[2,1]    OBJ       49.996186     CON4      -1.000000   
    u[2,2]    OBJ       49.466655     CON5      -1.000000   
    u[2,3]    OBJ       27.484319     CON6      -1.000000   
    y[1,1,1]  OBJ       8.708620      CON7      1.476782    
    y[1,1,1]  CON13     1.000000    
    y[1,1,2]  OBJ       9.263445      CON8      0.827561    
    y[1,1,2]  CON14     1.000000    
    y[1,1,3]  OBJ       6.043435      CON9      1.240676    
    y[1,1,3]  CON15     1.000000    
    y[1,2,1]  OBJ       9.109937      CON7      0.676317    
    y[1,2,1]  CON16     1.000000    
    y[1,2,2]  OBJ       7.859041      CON8      1.463252    
    y[1,2,2]  CON17     1.000000    
    y[1,2,3]  OBJ       8.513773      CON9      1.013048    
    y[1,2,3]  CON18     1.000000    
    y[1,3,1]  OBJ       6.214123      CON7      0.685059    
    y[1,3,1]  CON19     1.000000    
    y[1,3,2]  OBJ       7.682406      CON8      1.159228    
    y[1,3,2]  CON20     1.000000    
    y[1,3,3]  OBJ       6.092090      CON9      1.302411    
    y[1,3,3]  CON21     1.000000    
    y[1,4,1]  OBJ       6.201929      CON7      0.623439    
    y[1,4,1]  CON22     1.000000    
    y[1,4,2]  OBJ       7.533767      CON8      1.343062    
    y[1,4,2]  CON23     1.000000    
    y[1,4,3]  OBJ       5.859855      CON9      0.501127    
    y[1,4,3]  CON24     1.000000    
    y[2,1,1]  OBJ       8.779989      CON10     1.476782    
    y[2,1,1]  CON13     1.000000    
    y[2,1,2]  OBJ       9.741190      CON11     0.827561    
    y[2,1,2]  CON14     1.000000    
    y[2,1,3]  OBJ       7.999062      CON12     1.240676    
    y[2,1,3]  CON15     1.000000    
    y[2,2,1]  OBJ       7.839418      CON10     0.676317    
    y[2,2,1]  CON16     1.000000    
    y[2,2,2]  OBJ       9.977630      CON11     1.463252    
    y[2,2,2]  CON17     1.000000    
    y[2,2,3]  OBJ       9.608799      CON12     1.013048    
    y[2,2,3]  CON18     1.000000    
    y[2,3,1]  OBJ       7.114312      CON10     0.685059    
    y[2,3,1]  CON19     1.000000    
    y[2,3,2]  OBJ       8.909683      CON11     1.159228    
    y[2,3,2]  CON20     1.000000    
    y[2,3,3]  OBJ       9.488429      CON12     1.302411    
    y[2,3,3]  CON21     1.000000    
    y[2,4,1]  OBJ       8.895896      CON10     0.623439    
    y[2,4,1]  CON22     1.000000    
    y[2,4,2]  OBJ       6.741233      CON11     1.343062    
    y[2,4,2]  CON23     1.000000    
    y[2,4,3]  OBJ       6.239422      CON12     0.501127    
    y[2,4,3]  CON24     1.000000    
    z[1,1]    OBJ       756.562240    CON13     1.000000    
    z[1,2]    OBJ       886.916975    CON14     1.000000    
    z[1,3]    OBJ       862.504857    CON15     1.000000    
    z[2,1]    OBJ       642.868729    CON16     1.000000    
    z[2,2]    OBJ       501.119861    CON17     1.000000    
    z[2,3]    OBJ       572.103341    CON18     1.000000    
    z[3,1]    OBJ       947.233226    CON19     1.000000    
    z[3,2]    OBJ       902.243891    CON20     1.000000    
    z[3,3]    OBJ       912.726944    CON21     1.000000    
    z[4,1]    OBJ       976.168087    CON22     1.000000    
    z[4,2]    OBJ       715.492826    CON23     1.000000    
    z[4,3]    OBJ       706.753330    CON24     1.000000    
    MARKER    'MARKER'                 'INTEND'
RHS
    RHS       CON1      -0.000000     CON2      -0.000000   
    RHS       CON3      -0.000000     CON4      -0.000000   
    RHS       CON5      -0.000000     CON6      -0.000000   
    RHS       CON7      -0.000000     CON8      -0.000000   
    RHS       CON9      -0.000000     CON10     -0.000000   
    RHS       CON11     -0.000000     CON12     -0.000000   
    RHS       CON13     1.000000      CON14     1.000000    
    RHS       CON15     1.000000      CON16     1.000000    
    RHS       CON17     1.000000      CON18     1.000000    
    RHS       CON19     1.000000      CON20     1.000000    
    RHS       CON21     1.000000      CON22     1.000000    
    RHS       CON23     1.000000      CON24     1.000000    
BOUNDS
 BV BOUND     u[1,1]  
 BV BOUND     u[1,2]  
 BV BOUND     u[1,3]  
 BV BOUND     u[2,1]  
 BV BOUND     u[2,2]  
 BV BOUND     u[2,3]  
 BV BOUND     y[1,1,1]
 BV BOUND     y[1,1,2]
 BV BOUND     y[1,1,3]
 BV BOUND     y[1,2,1]
 BV BOUND     y[1,2,2]
 BV BOUND     y[1,2,3]
 BV BOUND     y[1,3,1]
 BV BOUND     y[1,3,2]
 BV BOUND     y[1,3,3]
 BV BOUND     y[1,4,1]
 BV BOUND     y[1,4,2]
 BV BOUND     y[1,4,3]
 BV BOUND     y[2,1,1]
 BV BOUND     y[2,1,2]
 BV BOUND     y[2,1,3]
 BV BOUND     y[2,2,1]
 BV BOUND     y[2,2,2]
 BV BOUND     y[2,2,3]
 BV BOUND     y[2,3,1]
 BV BOUND     y[2,3,2]
 BV BOUND     y[2,3,3]
 BV BOUND     y[2,4,1]
 BV BOUND     y[2,4,2]
 BV BOUND     y[2,4,3]
 BV BOUND     z[1,1]  
 BV BOUND     z[1,2]  
 BV BOUND     z[1,3]  
 BV BOUND     z[2,1]  
 BV BOUND     z[2,2]  
 BV BOUND     z[2,3]  
 BV BOUND     z[3,1]  
 BV BOUND     z[3,2]  
 BV BOUND     z[3,3]  
 BV BOUND     z[4,1]  
 BV BOUND     z[4,2]  
 BV BOUND     z[4,3]  
ENDATA
